1643702400
1643720400
1643788800
1643806800
1643875200
1643893200
1643961600
1643968800
1643972400
1643983200
1644220800
1644238800
1644307200
1644325200
1644393600
1644411600
1644480000
1644498000
1644566400
1644573600
1644577200
1644588000
1644825600
1644843600
1644912000
1644930000
1644998400
1645016400
1645084800
1645102800
1645171200
1645179300
1645182900
1645192800
1645430400
1645448400
1645516800
1645534800
1645603200
1645621200
1645689600
1645707600
1645776000
1645784100
1645787700
1645797600
1646035200
1646053200
